[runlim] version:		1.10
[runlim] time limit:		1800 seconds
[runlim] real time limit:	1800 seconds
[runlim] space limit:		30000 MB
[runlim] argv[0]:		python
[runlim] argv[1]:		FE.py
[runlim] argv[2]:		E-bcspwr02.mtx.rnd
[runlim] start:			Thu Oct  3 13:58:21 2024
[runlim] main pid:		411624
[runlim] log captured:
22
21
Version identifier: 20.1.0.0 | 2020-11-10 | 9bedb6d68
CPXPARAM_Simplex_PGradient                       4
CPXPARAM_Read_DataCheck                          1
CPXPARAM_MIP_Strategy_File                       3
CPXPARAM_TimeLimit                               1800
CPXPARAM_WorkMem                                 122880
Tried aggregator 1 time.
MIP Presolve eliminated 115 rows and 61 columns.
MIP Presolve modified 1134 coefficients.
Reduced MIP has 1677 rows, 2340 columns, and 70091 nonzeros.
Reduced MIP has 2340 binaries, 0 generals, 0 SOSs, and 0 indicators.
Presolve time = 0.18 sec. (182.54 ticks)
Probing fixed 72 vars, tightened 0 bounds.
Probing time = 0.02 sec. (7.42 ticks)
Tried aggregator 1 time.
Detecting symmetries...
MIP Presolve eliminated 0 rows and 72 columns.
Reduced MIP has 1677 rows, 2268 columns, and 68390 nonzeros.
Reduced MIP has 2268 binaries, 0 generals, 0 SOSs, and 0 indicators.
Presolve time = 0.07 sec. (63.80 ticks)
Probing time = 0.01 sec. (2.79 ticks)
Clique table members: 3024.
MIP emphasis: balance optimality and feasibility.
MIP search method: dynamic search.
Parallel mode: deterministic, using up to 8 threads.
Root relaxation solution time = 0.17 sec. (114.92 ticks)

        Nodes                                         Cuts/
   Node  Left     Objective  IInf  Best Integer    Best Bound    ItCnt     Gap

      0     0        0.0000   162                      0.0000      881         
      0     0        0.0000    86                     Cuts: 3      927         
      0     0        0.0000   238                    Cuts: 90     2084         
*     0+    0                            0.0000        0.0000             0.00%
      0     0        cutoff              0.0000        0.0000     2392    0.00%
Elapsed time = 4.12 sec. (3277.93 ticks, tree = 0.01 MB, solutions = 1)

Clique cuts applied:  27
Zero-half cuts applied:  3

Root node processing (before b&c):
  Real time             =    4.12 sec. (3278.00 ticks)
Parallel b&c, 8 threads:
  Real time             =    0.00 sec. (0.00 ticks)
  Sync time (average)   =    0.00 sec.
  Wait time (average)   =    0.00 sec.
                          ------------
Total (root+branch&cut) =    4.12 sec. (3278.00 ticks)
Trạng thái giải pháp: integer optimal solution
Giá trị Antibandwidth: 21
Giá trị Antibandwidth: 21
Các nhãn: [33, 40, 44, 28, 36, 26, 27, 12, 24, 13, 8, 32, 19, 38, 46, 37, 23, 22, 25, 16, 20, 11, 7, 43, 45, 47, 48, 1, 10, 42, 31, 2, 3, 14, 21, 9, 18, 35, 15, 30, 34, 5, 4, 6, 29, 17, 49, 41, 39]
Bài toán Antibandwidth
Version identifier: 20.1.0.0 | 2020-11-10 | 9bedb6d68
CPXPARAM_Simplex_PGradient                       4
CPXPARAM_Read_DataCheck                          1
CPXPARAM_MIP_Strategy_File                       3
CPXPARAM_TimeLimit                               1800
CPXPARAM_WorkMem                                 122880
Tried aggregator 1 time.
MIP Presolve eliminated 107 rows and 65 columns.
MIP Presolve modified 1201 coefficients.
Reduced MIP has 1624 rows, 2336 columns, and 70747 nonzeros.
Reduced MIP has 2336 binaries, 0 generals, 0 SOSs, and 0 indicators.
Presolve time = 0.18 sec. (189.42 ticks)
Probing fixed 80 vars, tightened 0 bounds.
Probing time = 0.01 sec. (7.56 ticks)
Tried aggregator 1 time.
Detecting symmetries...
MIP Presolve eliminated 0 rows and 80 columns.
Reduced MIP has 1624 rows, 2256 columns, and 68857 nonzeros.
Reduced MIP has 2256 binaries, 0 generals, 0 SOSs, and 0 indicators.
Presolve time = 0.07 sec. (64.83 ticks)
Probing fixed 31 vars, tightened 0 bounds.
Probing time = 0.02 sec. (7.27 ticks)
Clique table members: 2930.
MIP emphasis: balance optimality and feasibility.
MIP search method: dynamic search.
Parallel mode: deterministic, using up to 8 threads.
Root relaxation solution time = 0.16 sec. (131.43 ticks)

        Nodes                                         Cuts/
   Node  Left     Objective  IInf  Best Integer    Best Bound    ItCnt     Gap

      0     0        0.0000   178                      0.0000      925         
[runlim] sample:		53.6 time, 10.1 real, 157.2 MB
      0     0        0.0000   155                    Cuts: 15     1291         
      0     0        0.0000   216                    Cuts: 87     2385         
      0     0        0.0000   236                    Cuts: 18     2942         
      0     0        cutoff                                       2942         
Elapsed time = 15.44 sec. (11770.90 ticks, tree = 0.01 MB, solutions = 0)

Clique cuts applied:  25
Zero-half cuts applied:  4

Root node processing (before b&c):
  Real time             =   15.44 sec. (11770.91 ticks)
Parallel b&c, 8 threads:
  Real time             =    0.00 sec. (0.00 ticks)
  Sync time (average)   =    0.00 sec.
  Wait time (average)   =    0.00 sec.
                          ------------
Total (root+branch&cut) =   15.44 sec. (11770.91 ticks)
Trạng thái giải pháp: integer infeasible
[runlim] end:			Thu Oct  3 13:58:40 2024
[runlim] status:		ok
[runlim] result:		0
[runlim] children:		0
[runlim] real:			19.92 seconds
[runlim] time:			105.84 seconds
[runlim] space:			158.3 MB
[runlim] samples:		198
